/*
 * Config
 * 
 * Server configuration data
 * 
 * Author: Eric Dortmans (e.dortmans@fontys.nl)
 */

import Types.dzn;

interface IConfig
{
	in void myId(out string serverId);		// provides Id of this server
	in number numPeers();
	in bool nextPeer(out string serverId);	// provides Id of a peer server
	behaviour
	{
		on myId: {}
		number numberOfPeers = 3;
		number peer = 0;
		on numPeers: {reply(numberOfPeers);}
		on nextPeer: {
			if(peer < numberOfPeers){
				peer = peer + 1;
				reply(true);
			} else {
				reply(false);
			}
		}
	}
}

component Config
{ // Handwritten
	provides IConfig ctrl;
}